set Z;
 set Y;
 param A{r in Z, m in Y} default 0, binary;
 var Route{m in Y}, binary;
 minimize cost: sum{m in Y} Route[m];
 subject to covers{r in Z}: sum{m in Y} A[r,m]*Route[m]>=1;
 solve; 
 printf {m in Y:  Route[m] == 1} "%s ", m > "C:/Sites/first_app/Results.txt";
 data;
set Z:= Z1 Z2 Z3 Z4 Z5 Z6 Z7 Z8 Z9 Z10 Z11 Z12 Z13 Z14 Z15 Z16 Z17 Z18 Z19 Z20 Z21 Z22 Z23 Z24 Z25 Z26 Z27 Z28 Z29 Z30 Z31 Z32 Z33 Z34 Z35 Z36 Z37 Z38 Z39 Z40 Z41 Z42 Z43 Z44 Z45 Z46 Z47 Z48 Z49 Z50 Z51 Z52 Z53 Z54 Z55 Z56 Z57 Z58 Z59 Z60 Z61 Z62 Z63 Z64 Z65 Z66 Z67 Z68 Z69 Z70 Z71 Z72 Z73 Z74 Z75 Z76 Z77 Z78 Z79 Z80 Z81 Z82 Z83 Z84 Z85 Z86 Z87 Z88 Z89 Z90 Z91 Z92 Z93 Z94 Z95 Z96 Z97 Z98 Z99 Z100 Z101 Z102 Z103 Z104 Z105 Z106 Z107 Z108 Z109 Z110 Z111 Z112 Z113 Z114 Z115 Z116 Z117 Z118 Z119 Z120 Z121 Z122 Z123 Z124 Z125 Z126 Z127 Z128 Z129 Z130 Z131 Z132 Z133 Z134 Z135 Z136 Z137 Z138 Z139 Z140 Z141 Z142 Z143 Z144 Z145 Z146 Z147 Z148 Z149 Z150 Z151 Z152 Z153 Z154 Z155 Z158 Z159 Z160 Z161 Z162 Z163 Z164 Z165 Z166 ;
set Y:= Y1 Y2 Y3 Y4 Y5 Y6 Y7 Y8 Y9 Y10 Y11 Y12 Y13 Y14 Y15 Y16 Y17 Y18 Y19 Y20 Y21 Y22 Y23 Y24 Y25 Y26 Y27 Y28 Y29 Y30 Y31 Y32 Y33 Y34 Y35 Y36 Y37 Y38 Y39 Y40 Y41 Y42 Y43 Y44 Y45 Y46 Y47 Y48 Y49 Y50 Y51 Y52 Y53 Y54 Y55 Y56 Y57 Y58 Y59 Y60 Y61 Y62 Y63 Y64 Y65 Y66 Y67 Y68 Y69 Y70 Y71 ;
param A := 
[Z1,Y1] 1[Z1,Y2] 1[Z2,Y1] 1[Z2,Y2] 1[Z3,Y1] 1[Z3,Y2] 1[Z3,Y3] 1[Z4,Y1] 1[Z4,Y2] 1[Z5,Y1] 1[Z5,Y2] 1[Z5,Y3] 1[Z5,Y64] 1[Z6,Y1] 1[Z6,Y2] 1[Z6,Y3] 1[Z6,Y64] 1[Z7,Y1] 1[Z7,Y2] 1[Z7,Y3] 1[Z8,Y1] 1[Z8,Y2] 1[Z8,Y3] 1[Z8,Y4] 1[Z8,Y64] 1[Z9,Y1] 1[Z9,Y2] 1[Z9,Y3] 1[Z9,Y4] 1[Z9,Y18] 1[Z9,Y64] 1[Z10,Y1] 1[Z10,Y2] 1[Z10,Y3] 1[Z10,Y4] 1[Z10,Y64] 1[Z11,Y5] 1[Z11,Y6] 1[Z12,Y5] 1[Z12,Y6] 1[Z13,Y5] 1[Z13,Y6] 1[Z14,Y5] 1[Z14,Y6] 1[Z15,Y6] 1[Z15,Y7] 1[Z15,Y8] 1[Z16,Y6] 1[Z16,Y7] 1[Z16,Y8] 1[Z17,Y6] 1[Z17,Y7] 1[Z17,Y8] 1[Z18,Y6] 1[Z18,Y7] 1[Z18,Y8] 1[Z19,Y6] 1[Z19,Y7] 1[Z19,Y8] 1[Z20,Y6] 1[Z20,Y7] 1[Z20,Y8] 1[Z21,Y6] 1[Z21,Y7] 1[Z21,Y8] 1[Z22,Y7] 1[Z22,Y8] 1[Z23,Y12] 1[Z23,Y13] 1[Z23,Y59] 1[Z23,Y60] 1[Z24,Y12] 1[Z24,Y13] 1[Z24,Y59] 1[Z24,Y60] 1[Z25,Y12] 1[Z25,Y13] 1[Z25,Y59] 1[Z25,Y60] 1[Z26,Y12] 1[Z26,Y13] 1[Z27,Y12] 1[Z27,Y13] 1[Z28,Y12] 1[Z28,Y13] 1[Z29,Y12] 1[Z29,Y13] 1[Z30,Y12] 1[Z30,Y13] 1[Z31,Y12] 1[Z31,Y13] 1[Z32,Y12] 1[Z32,Y13] 1[Z32,Y59] 1[Z32,Y60] 1[Z33,Y12] 1[Z33,Y13] 1[Z33,Y59] 1[Z33,Y60] 1[Z34,Y12] 1[Z34,Y13] 1[Z34,Y59] 1[Z34,Y60] 1[Z35,Y12] 1[Z35,Y13] 1[Z35,Y59] 1[Z35,Y60] 1[Z35,Y61] 1[Z36,Y12] 1[Z36,Y59] 1[Z36,Y60] 1[Z36,Y61] 1[Z37,Y9] 1[Z37,Y10] 1[Z38,Y9] 1[Z38,Y10] 1[Z39,Y9] 1[Z39,Y10] 1[Z40,Y9] 1[Z40,Y10] 1[Z41,Y10] 1[Z41,Y11] 1[Z41,Y19] 1[Z41,Y20] 1[Z42,Y10] 1[Z42,Y11] 1[Z42,Y19] 1[Z42,Y20] 1[Z43,Y10] 1[Z43,Y11] 1[Z43,Y18] 1[Z43,Y19] 1[Z43,Y20] 1[Z44,Y10] 1[Z44,Y11] 1[Z44,Y18] 1[Z44,Y19] 1[Z44,Y20] 1[Z45,Y10] 1[Z45,Y11] 1[Z45,Y18] 1[Z45,Y19] 1[Z45,Y20] 1[Z45,Y21] 1[Z45,Y64] 1[Z46,Y10] 1[Z46,Y11] 1[Z46,Y18] 1[Z46,Y19] 1[Z46,Y20] 1[Z46,Y21] 1[Z46,Y64] 1[Z47,Y11] 1[Z47,Y18] 1[Z47,Y19] 1[Z47,Y20] 1[Z47,Y21] 1[Z48,Y11] 1[Z48,Y19] 1[Z48,Y20] 1[Z48,Y21] 1[Z49,Y21] 1[Z49,Y31] 1[Z50,Y21] 1[Z50,Y31] 1[Z51,Y22] 1[Z51,Y23] 1[Z51,Y24] 1[Z52,Y22] 1[Z52,Y23] 1[Z52,Y24] 1[Z52,Y25] 1[Z53,Y22] 1[Z53,Y23] 1[Z53,Y24] 1[Z53,Y25] 1[Z54,Y22] 1[Z54,Y23] 1[Z54,Y24] 1[Z54,Y25] 1[Z55,Y22] 1[Z55,Y23] 1[Z55,Y24] 1[Z55,Y25] 1[Z56,Y23] 1[Z56,Y24] 1[Z56,Y25] 1[Z57,Y23] 1[Z57,Y24] 1[Z57,Y25] 1[Z58,Y23] 1[Z58,Y24] 1[Z58,Y25] 1[Z59,Y22] 1[Z59,Y23] 1[Z59,Y24] 1[Z59,Y25] 1[Z60,Y22] 1[Z60,Y23] 1[Z60,Y24] 1[Z60,Y25] 1[Z61,Y26] 1[Z61,Y27] 1[Z61,Y28] 1[Z62,Y26] 1[Z62,Y27] 1[Z62,Y28] 1[Z62,Y29] 1[Z63,Y26] 1[Z63,Y27] 1[Z63,Y28] 1[Z63,Y29] 1[Z64,Y26] 1[Z64,Y27] 1[Z64,Y28] 1[Z64,Y29] 1[Z65,Y26] 1[Z65,Y27] 1[Z65,Y28] 1[Z65,Y29] 1[Z66,Y26] 1[Z66,Y27] 1[Z66,Y28] 1[Z66,Y29] 1[Z67,Y29] 1[Z67,Y30] 1[Z68,Y29] 1[Z68,Y30] 1[Z69,Y29] 1[Z69,Y30] 1[Z70,Y29] 1[Z70,Y30] 1[Z71,Y29] 1[Z71,Y30] 1[Z72,Y29] 1[Z72,Y30] 1[Z73,Y32] 1[Z73,Y33] 1[Z74,Y34] 1[Z74,Y35] 1[Z74,Y65] 1[Z75,Y34] 1[Z75,Y35] 1[Z75,Y65] 1[Z76,Y17] 1[Z76,Y60] 1[Z76,Y61] 1[Z77,Y16] 1[Z78,Y14] 1[Z79,Y14] 1[Z80,Y14] 1[Z81,Y15] 1[Z82,Y16] 1[Z82,Y17] 1[Z83,Y43] 1[Z84,Y41] 1[Z84,Y42] 1[Z84,Y43] 1[Z85,Y41] 1[Z85,Y42] 1[Z85,Y43] 1[Z86,Y41] 1[Z86,Y42] 1[Z86,Y43] 1[Z87,Y41] 1[Z87,Y42] 1[Z87,Y43] 1[Z88,Y41] 1[Z88,Y42] 1[Z89,Y41] 1[Z89,Y42] 1[Z90,Y41] 1[Z91,Y41] 1[Z91,Y42] 1[Z91,Y43] 1[Z92,Y42] 1[Z92,Y43] 1[Z93,Y40] 1[Z94,Y40] 1[Z95,Y40] 1[Z96,Y40] 1[Z97,Y38] 1[Z98,Y37] 1[Z98,Y38] 1[Z98,Y39] 1[Z98,Y69] 1[Z99,Y38] 1[Z99,Y39] 1[Z99,Y69] 1[Z100,Y36] 1[Z100,Y37] 1[Z100,Y38] 1[Z100,Y39] 1[Z100,Y69] 1[Z101,Y35] 1[Z101,Y65] 1[Z101,Y69] 1[Z102,Y36] 1[Z102,Y37] 1[Z102,Y38] 1[Z102,Y39] 1[Z102,Y69] 1[Z103,Y37] 1[Z104,Y45] 1[Z104,Y46] 1[Z105,Y36] 1[Z105,Y37] 1[Z105,Y45] 1[Z106,Y36] 1[Z106,Y37] 1[Z106,Y45] 1[Z107,Y36] 1[Z107,Y37] 1[Z107,Y38] 1[Z107,Y45] 1[Z107,Y69] 1[Z108,Y36] 1[Z108,Y37] 1[Z109,Y36] 1[Z109,Y37] 1[Z109,Y45] 1[Z110,Y36] 1[Z110,Y37] 1[Z110,Y45] 1[Z110,Y69] 1[Z111,Y45] 1[Z111,Y46] 1[Z112,Y45] 1[Z112,Y46] 1[Z113,Y47] 1[Z113,Y48] 1[Z113,Y49] 1[Z114,Y47] 1[Z114,Y48] 1[Z114,Y49] 1[Z115,Y49] 1[Z116,Y49] 1[Z117,Y50] 1[Z117,Y51] 1[Z118,Y50] 1[Z118,Y51] 1[Z119,Y52] 1[Z120,Y56] 1[Z120,Y58] 1[Z121,Y56] 1[Z121,Y58] 1[Z122,Y56] 1[Z122,Y57] 1[Z123,Y56] 1[Z123,Y57] 1[Z124,Y56] 1[Z124,Y57] 1[Z125,Y56] 1[Z125,Y58] 1[Z126,Y54] 1[Z126,Y55] 1[Z127,Y54] 1[Z127,Y55] 1[Z128,Y53] 1[Z128,Y54] 1[Z129,Y53] 1[Z129,Y54] 1[Z130,Y53] 1[Z130,Y54] 1[Z131,Y53] 1[Z131,Y54] 1[Z132,Y12] 1[Z132,Y17] 1[Z132,Y59] 1[Z132,Y60] 1[Z132,Y61] 1[Z133,Y12] 1[Z133,Y17] 1[Z133,Y59] 1[Z133,Y60] 1[Z133,Y61] 1[Z134,Y17] 1[Z134,Y59] 1[Z134,Y60] 1[Z134,Y61] 1[Z135,Y17] 1[Z135,Y59] 1[Z135,Y60] 1[Z135,Y61] 1[Z136,Y17] 1[Z136,Y62] 1[Z136,Y63] 1[Z137,Y17] 1[Z137,Y44] 1[Z137,Y62] 1[Z137,Y63] 1[Z138,Y17] 1[Z138,Y44] 1[Z138,Y62] 1[Z138,Y63] 1[Z139,Y17] 1[Z139,Y44] 1[Z139,Y62] 1[Z139,Y63] 1[Z140,Y44] 1[Z140,Y62] 1[Z140,Y63] 1[Z141,Y3] 1[Z141,Y4] 1[Z141,Y18] 1[Z141,Y19] 1[Z141,Y64] 1[Z142,Y2] 1[Z142,Y3] 1[Z142,Y4] 1[Z142,Y18] 1[Z142,Y19] 1[Z142,Y64] 1[Z143,Y1] 1[Z143,Y2] 1[Z143,Y3] 1[Z143,Y4] 1[Z143,Y18] 1[Z143,Y19] 1[Z143,Y64] 1[Z144,Y2] 1[Z144,Y3] 1[Z144,Y4] 1[Z144,Y18] 1[Z144,Y19] 1[Z144,Y64] 1[Z145,Y3] 1[Z145,Y4] 1[Z145,Y18] 1[Z145,Y19] 1[Z145,Y20] 1[Z145,Y64] 1[Z146,Y4] 1[Z146,Y11] 1[Z146,Y18] 1[Z146,Y19] 1[Z146,Y20] 1[Z146,Y64] 1[Z147,Y4] 1[Z147,Y11] 1[Z147,Y18] 1[Z147,Y19] 1[Z147,Y20] 1[Z147,Y64] 1[Z148,Y10] 1[Z148,Y11] 1[Z148,Y18] 1[Z148,Y19] 1[Z148,Y20] 1[Z148,Y21] 1[Z148,Y64] 1[Z149,Y31] 1[Z149,Y32] 1[Z150,Y31] 1[Z150,Y32] 1[Z151,Y31] 1[Z151,Y32] 1[Z151,Y33] 1[Z152,Y31] 1[Z152,Y32] 1[Z152,Y33] 1[Z153,Y31] 1[Z153,Y32] 1[Z153,Y33] 1[Z154,Y31] 1[Z154,Y32] 1[Z154,Y33] 1[Z155,Y31] 1[Z155,Y32] 1[Z155,Y33] 1[Z158,Y35] 1[Z158,Y65] 1[Z158,Y69] 1[Z159,Y66] 1[Z159,Y67] 1[Z159,Y68] 1[Z160,Y66] 1[Z160,Y67] 1[Z160,Y68] 1[Z161,Y66] 1[Z161,Y67] 1[Z161,Y68] 1[Z162,Y66] 1[Z162,Y67] 1[Z162,Y68] 1[Z163,Y66] 1[Z163,Y67] 1[Z163,Y68] 1[Z164,Y66] 1[Z164,Y67] 1[Z164,Y68] 1[Z165,Y66] 1[Z165,Y67] 1[Z165,Y68] 1[Z166,Y36] 1[Z166,Y37] 1[Z166,Y38] 1[Z166,Y39] 1[Z166,Y69] 1
;end;
